SCIP Status        : solving was interrupted [time limit reached]
Total Time         :    3600.00
  solving          :    3600.00
  presolving       :       0.37 (included in solving)
  reading          :       0.00
  copying          :       1.71 (51 #copies) (minimal 0.00, maximal 0.09, average 0.03)
Original Problem   :
  Problem name     : bbbenchmark/g05_100.3.cut
  Variables        : 101 (100 binary, 0 integer, 0 implicit integer, 1 continuous)
  Constraints      : 1 initial, 1 maximal
  Objective        : minimize, 1 non-zeros (abs.min = 1, abs.max = 1)
Presolved Problem  :
  Problem name     : t_bbbenchmark/g05_100.3.cut
  Variables        : 1898 (100 binary, 0 integer, 1784 implicit integer, 14 continuous)
  Constraints      : 1824 initial, 7574 maximal
  Objective        : minimize, 1 non-zeros (abs.min = 1, abs.max = 1)
  Nonzeros         : 8697 constraint, 202 clique table
Presolvers         :   ExecTime  SetupTime  Calls  FixedVars   AggrVars   ChgTypes  ChgBounds   AddHoles    DelCons    AddCons   ChgSides   ChgCoefs
  boundshift       :       0.00       0.00      0          0          0          0          0          0          0          0          0          0
  convertinttobin  :       0.00       0.00      0          0          0          0          0          0          0          0          0          0
  domcol           :       0.00       0.00      1          0          0          0          0          0          0          0          0          0
  dualagg          :       0.00       0.00      0          0          0          0          0          0          0          0          0          0
  dualcomp         :       0.00       0.00      1          0          0          0          0          0          0          0          0          0
  dualinfer        :       0.00       0.00      0          0          0          0          0          0          0          0          0          0
  dualsparsify     :       0.00       0.00      1          0          0          0          0          0          0          0          0          0
  gateextraction   :       0.00       0.00      0          0          0          0          0          0          0          0          0          0
  implics          :       0.00       0.00      2          0          0          0          0          0          0          0          0          0
  inttobinary      :       0.00       0.00      0          0          0          0          0          0          0          0          0          0
  qpkktref         :       0.00       0.00      0          0          0          0          0          0          0          0          0          0
  redvub           :       0.00       0.00      0          0          0          0          0          0          0          0          0          0
  sparsify         :       0.00       0.00      1          0          0          0          0          0          0          0          0          0
  stuffing         :       0.00       0.00      0          0          0          0          0          0          0          0          0          0
  trivial          :       0.00       0.00      4          0          0          0          0          0          0          0          0          0
  tworowbnd        :       0.00       0.00      0          0          0          0          0          0          0          0          0          0
  dualfix          :       0.00       0.00      4          0          0          0          0          0          0          0          0          0
  genvbounds       :       0.00       0.00      0          0          0          0          0          0          0          0          0          0
  probing          :       0.30       0.00      1          0          0          0          0          0          0          0          0          0
  pseudoobj        :       0.00       0.00      1          0          0          0          1          0          0          0          0          0
  symmetry         :       0.00       0.00      0          0          0          0          0          0          0          0          0          0
  vbounds          :       0.00       0.00      1          0          0          0          0          0          0          0          0          0
  varbound         :       0.00       0.00      2          0          0          0          0          0          0          0          0          0
  and              :       0.00       0.00      2          0          0          0          0          0          0          0          0          0
  linear           :       0.01       0.00      2          0          0          0          0          0          0          0          0          0
  logicor          :       0.00       0.00      0          0          0          0          0          0          0          0          0          0
  bounddisjunction :       0.00       0.00      0          0          0          0          0          0          0          0          0          0
  nonlinear        :       0.05       0.00      5          0          0          0          1          0          0       1823          0          0
  benders          :       0.00       0.00      0          0          0          0          0          0          0          0          0          0
  components       :       0.00       0.00      1          0          0          0          0          0          0          0          0          0
  root node        :          -          -      -          0          -          -         15          -          -          -          -          -
Constraints        :     Number  MaxNumber  #Separate #Propagate    #EnfoLP    #EnfoRelax  #EnfoPS    #Check   #ResProp    Cutoffs    DomReds       Cuts    Applied      Conss   Children
  benderslp        :          0          0          0          0      77183          0          0       3611          0          0          0          0          0          0          0
  integral         :          0          0          0          0      77183          0          0       3611          0          0         11          0          0         11     154340
  varbound         :         13         13        179     416006          0          0          0       1442          0          0      64895          0          0          0          0
  and              :       1784       1784      88187     611880          4          0          0       1442     292837          0     121435       1885       1860          0          0
  linear           :         27+        32        179     611933          4          0          0       1440        486          1     222102          0          0          0          0
  logicor          :          0+      5594          0      91197          0          0          0          0          7        173          5          0          0          0          0
  bounddisjunction :          0+       277          0      39818          0          0          0          0          2          9          9          0          0          0          0
  benders          :          0          0          0          0          4          0          0         32          0          0          0          0          0          0          0
  countsols        :          0          0          0          0          4          0          0         32          0          0          0          0          0          0          0
  components       :          0          0          0          0          0          0          0          0          0          0          0          0          0          0          0
Constraint Timings :  TotalTime  SetupTime   Separate  Propagate     EnfoLP     EnfoPS     EnfoRelax   Check    ResProp    SB-Prop
  benderslp        :       0.13       0.00       0.00       0.00       0.13       0.00       0.00       0.00       0.00       0.00
  integral         :      62.89       0.00       0.00       0.00      62.79       0.00       0.00       0.10       0.00       0.00
  varbound         :       1.20       0.00       0.01       1.17       0.00       0.00       0.00       0.02       0.00       0.00
  and              :      82.46       0.00      55.48      25.45       0.00       0.00       0.00       0.51       0.21       0.81
  linear           :       3.63       0.00       0.14       3.39       0.00       0.00       0.00       0.03       0.01       0.06
  logicor          :       8.83       0.00       0.00       8.82       0.00       0.00       0.00       0.00       0.00       0.01
  bounddisjunction :       0.60       0.00       0.00       0.60       0.00       0.00       0.00       0.00       0.00       0.00
  benders          :       0.00       0.00       0.00       0.00       0.00       0.00       0.00       0.00       0.00       0.00
  countsols        :       0.00       0.00       0.00       0.00       0.00       0.00       0.00       0.00       0.00       0.00
  components       :       0.16       0.00       0.00       0.16       0.00       0.00       0.00       0.00       0.00       0.00
Propagators        : #Propagate   #ResProp    Cutoffs    DomReds
  dualfix          :          4          0          0          0
  genvbounds       :          0          0          0          0
  nlobbt           :          0          0          0          0
  obbt             :          0          0          0          0
  probing          :          0          0          0          0
  pseudoobj        :     334462          0          0         60
  redcost          :     172213          0          0      29783
  rootredcost      :         14          0          0          0
  symmetry         :          0          0          0          0
  vbounds          :     109946          0          0          0
Propagator Timings :  TotalTime  SetupTime   Presolve  Propagate    ResProp    SB-Prop
  dualfix          :       0.00       0.00       0.00       0.00       0.00       0.00
  genvbounds       :       0.42       0.00       0.00       0.40       0.00       0.02
  nlobbt           :       0.00       0.00       0.00       0.00       0.00       0.00
  obbt             :       0.01       0.00       0.00       0.01       0.00       0.00
  probing          :       0.30       0.00       0.30       0.00       0.00       0.00
  pseudoobj        :       0.81       0.00       0.00       0.81       0.00       0.00
  redcost          :      12.00       0.00       0.00      12.00       0.00       0.00
  rootredcost      :       0.49       0.00       0.00       0.49       0.00       0.00
  symmetry         :       0.25       0.00       0.00       0.25       0.00       0.00
  vbounds          :       0.55       0.00       0.00       0.54       0.00       0.01
Conflict Analysis  :       Time      Calls    Success    DomReds  Conflicts   Literals    Reconvs ReconvLits   Dualrays   Nonzeros   LP Iters   (pool size: [10000,10000])
  propagation      :       0.00        182        129          -        150       63.0          0        0.0          -          -          -
  infeasible LP    :       0.06         31         31          -       1266      140.3          0        0.0         34      199.3          0
  bound exceed. LP :      10.62       5012       3279          -      77748      109.6          0        0.0          0        0.0      19939
  strong branching :       0.00          0          0          -          0        0.0          0        0.0          -          -          0
  pseudo solution  :       0.00          0          0          -          0        0.0          0        0.0          -          -          -
  applied globally :       0.40          -          -          0      18770      118.4          -          -         34          -          -
  applied locally  :          -          -          -          0          0        0.0          -          -          0          -          -
Separators         :   ExecTime  SetupTime      Calls  RootCalls    Cutoffs    DomReds  FoundCuts ViaPoolAdd  DirectAdd    Applied ViaPoolApp  DirectApp      Conss
  cut pool         :       5.80          -      20013        217          -          -      34074    1343144          -          -          -          -          -    (maximal pool size:       3097)
  aggregation      :     155.03       0.00       4596        179          0          0         31         92          0          9          9          0          0
  > cmir           :          -          -          -          -          -          -          -         92          0          9          9          0          -
  > flowcover      :          -          -          -          -          -          -          -          0          0          0          0          0          -
  > knapsackcover  :          -          -          -          -          -          -          -          0          0          0          0          0          -
  cgmip            :       0.00       0.00          0          0          0          0          0          0          0          0          0          0          0
  clique           :       0.02       0.00        179        179          0          0          0          0          0          0          0          0          0
  closecuts        :       0.00       0.00          0          0          0          0          0          0          0          0          0          0          0
  convexproj       :       0.00       0.00          0          0          0          0          0          0          0          0          0          0          0
  disjunctive      :       0.00       0.00          0          0          0          0          0          0          0          0          0          0          0
  eccuts           :       0.00       0.00          0          0          0          0          0          0          0          0          0          0          0
  gauge            :       0.00       0.00          0          0          0          0          0          0          0          0          0          0          0
  gomory           :       0.00       0.00          0          0          0          0          0          0          0          0          0          0          0
  > gomorymi       :          -          -          -          -          -          -          -          0          0          0          0          0          -
  > strongcg       :          -          -          -          -          -          -          -          0          0          0          0          0          -
  impliedbounds    :       0.43       0.00       4596        179          0          0          3          0          0          0          0          0          0
  interlattice     :       1.26       0.00        146        146          0          0        146          0        146        144          0        144          0
  interminor       :       0.00       0.00          0          0          0          0          0          0          0          0          0          0          0
  intersub         :       0.47       0.00          6          6          0          0          6          0          6          6          0          6          0
  intobj           :       0.00       0.00          0          0          0          0          0          0          0          0          0          0          0
  mcf              :       0.00       0.00          1          1          0          0          0          0          0          0          0          0          0
  minor            :       0.00       0.00          0          0          0          0          0          0          0          0          0          0          0
  mixing           :       0.02       0.00       4596        179          0          0          0          0          0          0          0          0          0
  oddcycle         :       0.00       0.00          0          0          0          0          0          0          0          0          0          0          0
  rapidlearning    :       0.00       0.00          0          0          0          0          0          0          0          0          0          0          0
  rlt              :       0.00       0.00         10         10          0          0          0          0          0          0          0          0          0
  zerohalf         :      39.30       0.00       4113         20          0          0      34040    1343052          0     127950     127950          0          0
Cutselectors       :   ExecTime  SetupTime      Calls  RootCalls   Selected     Forced   Filtered  RootSelec   RootForc   RootFilt 
  hybrid           :       1.61       0.00      11947        183     129969          0    1215212        351          0         42
Pricers            :   ExecTime  SetupTime      Calls       Vars
  problem variables:       0.00          -          0          0
Branching Rules    :   ExecTime  SetupTime   BranchLP  BranchExt   BranchPS    Cutoffs    DomReds       Cuts      Conss   Children
  allfullstrong    :       0.00       0.00          0          0          0          0          0          0          0          0
  cloud            :       0.00       0.00          0          0          0          0          0          0          0          0
  distribution     :       0.00       0.00          0          0          0          0          0          0          0          0
  fullstrong       :       0.00       0.00          0          0          0          0          0          0          0          0
  inference        :       0.00       0.00          0          0          0          0          0          0          0          0
  leastinf         :       0.00       0.00          0          0          0          0          0          0          0          0
  lookahead        :       0.00       0.00          0          0          0          0          0          0          0          0
  mostinf          :       0.00       0.00          0          0          0          0          0          0          0          0
  multaggr         :       0.00       0.00          0          0          0          0          0          0          0          0
  nodereopt        :       0.00       0.00          0          0          0          0          0          0          0          0
  pscost           :       0.00       0.00          0          0          0          0          0          0          0          0
  random           :       0.00       0.00          0          0          0          0          0          0          0          0
  relpscost        :      62.49       0.00      77179          0          0          0         11          0         11     154340
  vanillafullstrong:       0.00       0.00          0          0          0          0          0          0          0          0
Primal Heuristics  :   ExecTime  SetupTime      Calls      Found       Best
  LP solutions     :       0.01          -          -          4          4
  relax solutions  :       0.00          -          -          0          0
  pseudo solutions :       0.00          -          -          0          0
  strong branching :       0.04          -          -          0          0
  actconsdiving    :       0.00       0.00          0          0          0
  adaptivediving   :       4.56       0.00         33          0          0
  alns             :       4.25       0.00         29          9          9
  bound            :       0.00       0.00          0          0          0
  clique           :       0.01       0.00          1          0          0
  coefdiving       :       0.00       0.00          0          0          0
  completesol      :       0.00       0.00          0          0          0
  conflictdiving   :      68.18       0.00        480          0          0
  crossover        :       2.62       0.00          3          1          1
  dins             :       0.00       0.00          0          0          0
  distributiondivin:      83.17       0.00        394          0          0
  dps              :       0.00       0.00          0          0          0
  dualval          :       0.00       0.00          0          0          0
  farkasdiving     :       0.00       0.00          0          0          0
  feaspump         :       0.52       0.00          1          1          1
  fixandinfer      :       0.00       0.00          0          0          0
  fracdiving       :      63.38       0.00        479          0          0
  gins             :       0.12       0.00          0          0          0
  guideddiving     :      63.83       0.00        480          0          0
  indicator        :       0.13       0.00          0          0          0
  indicatordiving  :       0.00       0.00          0          0          0
  intdiving        :       0.00       0.00          0          0          0
  intshifting      :       0.22       0.00         33          0          0
  linesearchdiving :      59.15       0.00        480          1          1
  localbranching   :       0.00       0.00          0          0          0
  locks            :       0.01       0.00          1          0          0
  lpface           :       0.10       0.00          0          0          0
  mpec             :      81.54       0.00         11          1          1
  multistart       :       0.00       0.00          0          0          0
  mutation         :       0.00       0.00          0          0          0
  nlpdiving        :      16.88       0.00          2          0          0
  objpscostdiving  :      79.86       0.00         81         10          1
  octane           :       0.00       0.00          0          0          0
  ofins            :       0.11       0.00          0          0          0
  oneopt           :       0.13       0.00         18          0          0
  padm             :       0.00       0.00          0          0          0
  proximity        :       0.00       0.00          0          0          0
  pscostdiving     :      65.14       0.00        411          1          1
  randrounding     :       1.97       0.00       3575          0          0
  rens             :       0.00       0.00          0          0          0
  reoptsols        :       0.00       0.00          0          0          0
  repair           :       0.00       0.00          0          0          0
  rins             :       3.74       0.00         18          0          0
  rootsoldiving    :      39.44       0.00         31          0          0
  rounding         :       1.44       0.00       4092          0          0
  shiftandpropagate:       0.00       0.00          0          0          0
  shifting         :      38.19       0.00       7784          2          2
  simplerounding   :       0.14       0.00          0          0          0
  subnlp           :     142.50       0.00          0          0          0
  trivial          :       0.01       0.00          2          2          2
  trivialnegation  :       0.00       0.00          0          0          0
  trustregion      :       0.00       0.00          0          0          0
  trysol           :       0.20       0.00          0          0          0
  twoopt           :       0.00       0.00          0          0          0
  undercover       :       1.60       0.00          1          1          1
  vbounds          :       0.00       0.00          0          0          0
  veclendiving     :      57.20       0.00        480          0          0
  zeroobj          :       0.00       0.00          0          0          0
  zirounding       :       0.29       0.00       1000          0          0
  other solutions  :          -          -          -          0          -
Diving (single)    :      Calls      Nodes   LP Iters Backtracks  Conflicts   MinDepth   MaxDepth   AvgDepth  RoundSols  NLeafSols  MinSolDpt  MaxSolDpt  AvgSolDpt
  actconsdiving    :          0          -          -          -          -          -          -          -          -          -          -          -          -
  coefdiving       :          0          -          -          -          -          -          -          -          -          -          -          -          -
  conflictdiving   :        480      19990     651555        494      21540         52         92       60.8          0          -          -          -          -
  distributiondivin:        394      14516     634296        433       5266         46         68       55.1          0          -          -          -          -
  farkasdiving     :          0          -          -          -          -          -          -          -          -          -          -          -          -
  fracdiving       :        479      48810     594275        140       1670         64        334      121.3          0          -          -          -          -
  guideddiving     :        480      46038     612334        167       2766         64        211      115.7          0          -          -          -          -
  indicatordiving  :          0          -          -          -          -          -          -          -          -          -          -          -          -
  linesearchdiving :        480      18103     563630        467      19790         46        104       56.5          0          1         93         93       93.0
  pscostdiving     :        411      20236     647121        422       7832         55         82       67.8          0          1         82         82       82.0
  veclendiving     :        480      19788     542732        455      19103         55         91       60.1          0          -          -          -          -
Diving (adaptive)  :      Calls      Nodes   LP Iters Backtracks  Conflicts   MinDepth   MaxDepth   AvgDepth  RoundSols  NLeafSols  MinSolDpt  MaxSolDpt  AvgSolDpt
  actconsdiving    :          4        151       6961          4         64         50         56       53.0          0          -          -          -          -
  coefdiving       :         10        447      10591          8        531         55         93       65.8          0          -          -          -          -
  conflictdiving   :          0          -          -          -          -          -          -          -          -          -          -          -          -
  distributiondivin:          0          -          -          -          -          -          -          -          -          -          -          -          -
  farkasdiving     :          0          -          -          -          -          -          -          -          -          -          -          -          -
  fracdiving       :          0          -          -          -          -          -          -          -          -          -          -          -          -
  guideddiving     :          5        387       4824          2         26         64        156      108.0          0          -          -          -          -
  indicatordiving  :          0          -          -          -          -          -          -          -          -          -          -          -          -
  linesearchdiving :          6        207       6508          4        243         51         66       58.5          0          -          -          -          -
  pscostdiving     :          3        154       4893          3         19         67         70       69.0          0          -          -          -          -
  veclendiving     :          5        220       5328          3        294         58         90       65.4          0          -          -          -          -
Neighborhoods      :      Calls  SetupTime  SolveTime SolveNodes       Sols       Best       Exp3  EpsGreedy        UCB TgtFixRate  Opt  Inf Node Stal  Sol  Usr Othr Actv
  rens             :          3       0.21       0.16         88          0          0    0.00000   -1.00000    0.46305      0.662    0    2    0    1    0    0    0    1
  rins             :          2       0.15       0.15        116          0          0    0.00000   -1.00000    0.45662      0.850    0    1    0    1    0    0    0    1
  mutation         :          8       0.34       0.94        473          6          6    0.00000   -1.00000    0.53350      0.712    1    1    0    5    1    0    0    1
  localbranching   :          2       0.12       0.12        113          0          0    0.00000   -1.00000    0.43166      0.850    0    1    0    1    0    0    0    1
  crossover        :          6       0.49       0.39        217          2          2    0.00000   -1.00000    0.50229      0.637    1    3    0    2    0    0    0    1
  proximity        :          2       0.13       0.21         92          0          0    0.00000   -1.00000    0.46693      0.850    0    1    0    1    0    0    0    1
  zeroobjective    :          4       0.12       0.31        474          1          1    0.00000   -1.00000    0.46335      0.822    1    1    0    2    0    0    0    1
  dins             :          2       0.08       0.10        131          0          0    0.00000   -1.00000    0.45989      0.850    0    1    0    1    0    0    0    1
  trustregion      :          0       0.00       0.00          0          0          0    0.00000   -1.00000    1.00000      0.900    0    0    0    0    0    0    0    0
Expressions        :   #IntEval  IntEvalTi   #RevProp  RevPropTi    DomReds    Cutoffs  #Estimate  EstimTime  Branching  #Simplify SimplifyTi Simplified
  pow              :          0       0.00          0       0.00          0          0          0       0.00          0          0       0.00          0
  prod             :       9900       0.00          0       0.00          0          0          0       0.00          0       6734       0.00          0
  sum              :          8       0.00          2       0.00          0          0          0       0.00          0          3       0.02          2
  var              :       6503       0.00          0       0.00          0          0          0       0.00          0      15568       0.00          0
  varidx           :          0       0.00          0       0.00          0          0          0       0.00          0          0       0.00          0
LP                 :       Time      Calls Iterations  Iter/call   Iter/sec  Time-0-It Calls-0-It    ItLimit
  primal LP        :     122.18      12728          0       0.00       0.00     122.10      12728
  dual LP          :    2082.03     142500   12342576      90.34    5928.15       2.99       5883
  lex dual LP      :       0.00          0          0       0.00          -
  barrier LP       :       0.00          0          0       0.00          -       0.00          0
  resolve instable :       0.00          0          0       0.00          -
  diving/probing LP:     503.99      18269    4901865     268.32    9726.12
  strong branching :      33.33       1866     298949     160.21    8969.37          -          -         91
    (at root node) :          -         19       7325     385.53          -
  conflict analysis:       2.96       2049      19939       9.73    6736.15
NLP relaxation     :
  solve time       :      16.81 (8 calls)
  convexity        :  nonconvex (40 linear rows, 0 convex ineq., 0 nonconvex ineq., 1784 nonlinear eq. or two-sided ineq.)
NLP Solvers        :  #Problems  ProblemTi    #Solves  SolveTime      #Iter  Time/Iter      #Okay #TimeLimit #IterLimit #LObjLimit #Interrupt  #NumError #EvalError  #OutOfMem #LicenseEr #OtherTerm   #GlobOpt    #LocOpt  #Feasible #LocInfeas #GlobInfea #Unbounded   #Unknown
  ipopt            :         12       6.09         26      99.00       1471       0.07         24          0          2          0          0          0          0          0          0          0          0         13          1          9          0          0          3
B&B Tree           :
  number of runs   :          1
  nodes            :     124657 (77170 internal, 47487 leaves)
  feasible leaves  :          4
  infeas. leaves   :          0
  objective leaves :      47482
  nodes (total)    :     124657 (77170 internal, 47487 leaves)
  nodes left       :      29629
  max depth        :         65
  max depth (total):         65
  backtracks       :      28133 (22.6%)
  early backtracks :          0 (0.0%)
  nodes exc. ref.  :          0 (0.0%)
  delayed cutoffs  :          4
  repropagations   :         17 (13 domain reductions, 0 cutoffs)
  avg switch length:       6.64
  switching time   :     156.80
Estim. Tree Size   :     249424
Estimation Tree    : 154341 nodes (124712 visited, 77170 internal, 47542 leaves, 29629 open), weight: 0.0000 completed 0.1068
Estimations        :      estim      value      trend resolution     smooth
  wbe              : 2150712330571722          -          -          -          -
  tree-profile     :         -1          -          -          -          -
  gap              :    2338573    0.69346    0.00002         64    2385962
  tree-weight      :     249424    0.00000    0.00000         64     249021
  leaf-frequency   :    4263001    0.38121    0.00000         64    3529064
  ssg              :    4666194    0.83136   -0.00002         64    4834762
  open-nodes       :     249424 29629.00000   20.73589         64     249021
Root Node          :
  First LP value   : -1.00000000000000e+00
  First LP Iters   :       1667 (10418.75 Iter/sec)
  First LP Time    :       0.16
  Final Dual Bound : -9.40460106358334e-01
  Final Root Iters :       5730
  Root LP Estimate : -2.76772890310366e-01
Solution           :
  Solutions found  :         33 (24 improvements)
  First Solution   : +1.00000000000000e+05   (in run 1, after 0 nodes, 0.00 seconds, depth 0, found by <trivial>)
  Gap First Sol.   :   infinite
  Gap Last Sol.    :      53.05 %
  Primal Bound     : -5.68888888888887e-01   (in run 1, after 15100 nodes, 392.13 seconds, depth 55, found by <crossover>)
  Dual Bound       : -8.20363835404526e-01
  Gap              :      44.20 %
Integrals          :      Total       Avg%
  primal-dual      :  118001.62      32.78
  primal-ref       :          -          - (not evaluated)
  dual-ref         :          -          - (not evaluated)
